2025-10-21 22:51:38,553 - INFO - 📌 第一个 epoch：默认所有模块使用 checkpoint
2025-10-21 22:51:58,500 - INFO - Epoch 1 completed in 19.964981 seconds
2025-10-21 22:55:16,912 - INFO - torch.cuda.max_memory_reserved() : 0.919921875
2025-10-21 22:56:38,123 - INFO - 
[🔁 拟合反向传播时间模型]
2025-10-21 22:56:38,124 - INFO - 总反向传播时间: 80.959255s
2025-10-21 22:56:38,124 - INFO - 拟合模型: backward_total ≈ 2 × (A + B) + b
2025-10-21 22:56:38,124 - INFO - A = 11.593160, B = 1.033050, b = 68.333045s
2025-10-21 22:56:38,169 - INFO - Set parameter LicenseID to value 2706656
2025-10-21 22:56:38,209 - INFO - Set parameter LogToConsole to value 1
2025-10-21 22:56:38,209 - INFO - Set parameter LogFile to value ""
2025-10-21 22:56:38,209 - INFO - Set parameter Threads to value 12
2025-10-21 22:56:38,209 - INFO - Set parameter TimeLimit to value 3600
2025-10-21 22:56:38,209 - INFO - Set parameter OptimalityTol to value 0.0001
2025-10-21 22:56:38,210 - INFO - Set parameter IntFeasTol to value 1e-05
2025-10-21 22:56:38,210 - INFO - Set parameter StartNodeLimit to value 10000000
2025-10-21 22:56:38,268 - INFO - Set parameter TimeLimit to value 3600
2025-10-21 22:56:38,268 - INFO - 
2025-10-21 22:56:38,269 - INFO - 
2025-10-21 22:56:38,269 - INFO - Restarting solve
2025-10-21 22:56:38,269 - INFO - 
2025-10-21 22:56:38,269 - INFO - 
2025-10-21 22:56:38,270 - INFO - Gurobi Optimizer version 12.0.3 build v12.0.3rc0 (linux64 - "Ubuntu 20.04.6 LTS")
2025-10-21 22:56:38,270 - INFO - 
2025-10-21 22:56:38,270 - INFO - CPU model: Intel(R) Xeon(R) Platinum 8260 CPU @ 2.40GHz, instruction set [SSE2|AVX|AVX2|AVX512]
2025-10-21 22:56:38,270 - INFO - Thread count: 48 physical cores, 96 logical processors, using up to 12 threads
2025-10-21 22:56:38,270 - INFO - 
2025-10-21 22:56:38,270 - INFO - Non-default parameters:
2025-10-21 22:56:38,271 - INFO - TimeLimit  3600
2025-10-21 22:56:38,271 - INFO - OptimalityTol  0.0001
2025-10-21 22:56:38,271 - INFO - StartNodeLimit  10000000
2025-10-21 22:56:38,271 - INFO - Threads  12
2025-10-21 22:56:38,271 - INFO - 
2025-10-21 22:56:38,271 - INFO - Optimize a model with 5603 rows, 3584 columns and 15200 nonzeros
2025-10-21 22:56:38,271 - INFO - Model fingerprint: 0x67ee612c
2025-10-21 22:56:38,271 - INFO - Variable types: 1024 continuous, 2560 integer (2560 binary)
2025-10-21 22:56:38,271 - INFO - Coefficient statistics:
2025-10-21 22:56:38,271 - INFO -   Matrix range     [1e+00, 6e+14]
2025-10-21 22:56:38,271 - INFO -   Objective range  [5e+04, 5e+05]
2025-10-21 22:56:38,271 - INFO -   Bounds range     [1e+00, 1e+15]
2025-10-21 22:56:38,271 - INFO -   RHS range        [1e+00, 1e+15]
2025-10-21 22:56:38,271 - INFO - Warning: Model contains large matrix coefficient range
2025-10-21 22:56:38,271 - INFO - Warning: Model contains large rhs
2025-10-21 22:56:38,271 - INFO - Warning: Model contains large bounds
2025-10-21 22:56:38,271 - INFO -          Consider reformulating model or setting NumericFocus parameter
2025-10-21 22:56:38,271 - INFO -          to avoid numerical issues.
2025-10-21 22:56:38,288 - INFO - Presolve removed 4323 rows and 2001 columns
2025-10-21 22:56:38,288 - INFO - Presolve time: 0.02s
2025-10-21 22:56:38,288 - INFO - Presolved: 1280 rows, 1583 columns, 4405 nonzeros
2025-10-21 22:56:38,289 - INFO - Variable types: 0 continuous, 1583 integer (1084 binary)
2025-10-21 22:56:38,301 - INFO - 
2025-10-21 22:56:38,301 - INFO - Root relaxation: objective 7.231028e+06, 420 iterations, 0.00 seconds (0.00 work units)
2025-10-21 22:56:38,309 - INFO - 
2025-10-21 22:56:38,309 - INFO -     Nodes    |    Current Node    |     Objective Bounds      |     Work
2025-10-21 22:56:38,309 - INFO -  Expl Unexpl |  Obj  Depth IntInf | Incumbent    BestBd   Gap | It/Node Time
2025-10-21 22:56:38,310 - INFO - 
2025-10-21 22:56:38,310 - INFO -      0     0 7231028.17    0   67          - 7231028.17      -     -    0s
2025-10-21 22:56:38,313 - INFO - H    0     0                    7529874.0000 7231028.17  3.97%     -    0s
2025-10-21 22:56:38,347 - INFO -      0     0 7237272.07    0  116 7529874.00 7237272.07  3.89%     -    0s
2025-10-21 22:56:38,369 - INFO -      0     0 7275037.54    0  349 7529874.00 7275037.54  3.38%     -    0s
2025-10-21 22:56:38,392 - INFO -      0     0 7279185.68    0  325 7529874.00 7279185.68  3.33%     -    0s
2025-10-21 22:56:38,403 - INFO -      0     0 7279185.68    0  492 7529874.00 7279185.68  3.33%     -    0s
2025-10-21 22:56:38,419 - INFO -      0     0 7279185.68    0  492 7529874.00 7279185.68  3.33%     -    0s
2025-10-21 22:56:38,451 - INFO -      0     0 7307706.29    0   54 7529874.00 7307706.29  2.95%     -    0s
2025-10-21 22:56:38,467 - INFO -      0     0 7307706.29    0  178 7529874.00 7307706.29  2.95%     -    0s
2025-10-21 22:56:38,473 - INFO -      0     0 7316472.62    0  391 7529874.00 7316472.62  2.83%     -    0s
2025-10-21 22:56:38,483 - INFO -      0     0 7324519.75    0  443 7529874.00 7324519.75  2.73%     -    0s
2025-10-21 22:56:38,497 - INFO -      0     0 7377919.91    0  445 7529874.00 7377919.91  2.02%     -    0s
2025-10-21 22:56:38,517 - INFO -      0     0 7429054.12    0  419 7529874.00 7429054.12  1.34%     -    0s
2025-10-21 22:56:38,535 - INFO -      0     2 7429054.12    0  419 7529874.00 7429054.12  1.34%     -    0s
2025-10-21 22:56:38,554 - INFO - H   40    12                    7508490.0000 7429054.12  1.06%  12.6    0s
2025-10-21 22:56:38,559 - INFO - *   55    10              12    7473953.0000 7429054.12  0.60%  11.6    0s
2025-10-21 22:56:38,565 - INFO - H   76    10                    7442036.0000 7442036.00  0.00%  10.8    0s
2025-10-21 22:56:38,566 - INFO - 
2025-10-21 22:56:38,566 - INFO - Cutting planes:
2025-10-21 22:56:38,566 - INFO -   Cover: 9
2025-10-21 22:56:38,566 - INFO -   Clique: 1
2025-10-21 22:56:38,566 - INFO -   GUB cover: 3
2025-10-21 22:56:38,566 - INFO - 
2025-10-21 22:56:38,566 - INFO - Explored 92 nodes (1944 simplex iterations) in 0.30 seconds (0.16 work units)
2025-10-21 22:56:38,566 - INFO - Thread count was 12 (of 96 available processors)
2025-10-21 22:56:38,566 - INFO - 
2025-10-21 22:56:38,566 - INFO - Solution count 4: 7.44204e+06 7.47395e+06 7.50849e+06 7.52987e+06 
2025-10-21 22:56:38,566 - INFO - 
2025-10-21 22:56:38,566 - INFO - Optimal solution found (tolerance 1.00e-04)
2025-10-21 22:56:38,567 - INFO - Best objective 7.442036000000e+06, best bound 7.442036000000e+06, gap 0.0000%
2025-10-21 22:56:38,579 - INFO - 规划前的显存GB：1.0
2025-10-21 22:56:38,579 - INFO - 规划后的显存GB：0.8219132423400879
2025-10-21 22:56:38,579 - INFO - ✅ 最优策略：[1, 1, 1, 1, 0, 0, 1, 0, 0, 0, 0, 0, 0, 0, 0, 0]
2025-10-21 22:56:38,579 - INFO - 📌 checkpoint 的欧氏长度:, [30, 36, 49]
2025-10-21 22:56:38,579 - INFO - 📌 checkpoint 的余弦长度:, [6, 12, 18, 24, 30, 36, 42, 49]
2025-10-21 22:56:38,579 - INFO - 💾 最终显存峰值：%.2f MB % 2444.3057861328125
2025-10-21 22:56:38,591 - INFO - Epoch 2 completed in 81.677695 seconds
2025-10-21 22:56:38,591 - INFO - torch.cuda.max_memory_reserved() : 0.919921875
2025-10-21 22:56:57,002 - INFO - Epoch 3 completed in 18.410145 seconds
2025-10-21 22:56:57,002 - INFO - 
====================== [第1个 Epoch 收集统计数据] ======================
2025-10-21 22:56:57,003 - INFO - 
🔍 EUCLIDEAN modules:
2025-10-21 22:56:57,003 - INFO - [Shapelet   6] forward_avg=0.002174s over 92 calls | peak=121.01MB | final=0.00MB
2025-10-21 22:56:57,003 - INFO - [Shapelet  12] forward_avg=0.002493s over 92 calls | peak=164.59MB | final=0.00MB
2025-10-21 22:56:57,003 - INFO - [Shapelet  18] forward_avg=0.002839s over 92 calls | peak=202.52MB | final=0.00MB
2025-10-21 22:56:57,003 - INFO - [Shapelet  24] forward_avg=0.003053s over 92 calls | peak=233.25MB | final=0.00MB
2025-10-21 22:56:57,003 - INFO - [Shapelet  30] forward_avg=0.002993s over 92 calls | peak=247.82MB | final=0.00MB
2025-10-21 22:56:57,003 - INFO - [Shapelet  36] forward_avg=0.003257s over 92 calls | peak=247.36MB | final=0.00MB
2025-10-21 22:56:57,003 - INFO - [Shapelet  42] forward_avg=0.004670s over 92 calls | peak=232.68MB | final=0.00MB
2025-10-21 22:56:57,003 - INFO - [Shapelet  49] forward_avg=0.002065s over 92 calls | peak=202.64MB | final=0.00MB
2025-10-21 22:56:57,003 - INFO - 
🔍 COSINE modules:
2025-10-21 22:56:57,003 - INFO - [Shapelet   6] forward_avg=0.002022s over 92 calls | peak=81.68MB | final=0.00MB
2025-10-21 22:56:57,003 - INFO - [Shapelet  12] forward_avg=0.002142s over 92 calls | peak=100.70MB | final=0.00MB
2025-10-21 22:56:57,003 - INFO - [Shapelet  18] forward_avg=0.002289s over 92 calls | peak=117.07MB | final=0.00MB
2025-10-21 22:56:57,003 - INFO - [Shapelet  24] forward_avg=0.002235s over 92 calls | peak=134.74MB | final=0.00MB
2025-10-21 22:56:57,003 - INFO - [Shapelet  30] forward_avg=0.002534s over 92 calls | peak=141.93MB | final=0.00MB
2025-10-21 22:56:57,003 - INFO - [Shapelet  36] forward_avg=0.002663s over 92 calls | peak=139.35MB | final=0.00MB
2025-10-21 22:56:57,003 - INFO - [Shapelet  42] forward_avg=0.002588s over 92 calls | peak=125.51MB | final=0.00MB
2025-10-21 22:56:57,003 - INFO - [Shapelet  49] forward_avg=0.001986s over 92 calls | peak=106.17MB | final=0.00MB
2025-10-21 22:56:57,003 - INFO - 
🔍 CROSS modules:
2025-10-21 22:56:57,003 - INFO - [Shapelet   6] forward_avg=0.000509s over 92 calls
2025-10-21 22:56:57,003 - INFO - [Shapelet  12] forward_avg=0.000477s over 92 calls
2025-10-21 22:56:57,003 - INFO - [Shapelet  18] forward_avg=0.000557s over 92 calls
2025-10-21 22:56:57,003 - INFO - [Shapelet  24] forward_avg=0.000636s over 92 calls
2025-10-21 22:56:57,003 - INFO - [Shapelet  30] forward_avg=0.000719s over 92 calls
2025-10-21 22:56:57,003 - INFO - [Shapelet  36] forward_avg=0.000815s over 92 calls
2025-10-21 22:56:57,003 - INFO - [Shapelet  42] forward_avg=0.000892s over 92 calls
2025-10-21 22:56:57,003 - INFO - [Shapelet  49] forward_avg=0.001009s over 92 calls
2025-10-21 22:56:57,003 - INFO - 
💾 模型第一次反向传播阶段的显存峰值（所有模块中的最大值）: 1533.12 MB
2025-10-21 22:56:57,003 - INFO - 
💾 模型初始显存: 18.32 MB
2025-10-21 22:56:57,003 - INFO - =======================================================================

2025-10-21 22:56:57,004 - INFO - torch.cuda.max_memory_reserved() : 1.845703125
2025-10-21 22:57:14,839 - INFO - Epoch 4 completed in 17.835215 seconds
2025-10-21 22:57:14,840 - INFO - torch.cuda.max_memory_reserved() : 1.845703125
2025-10-21 22:57:33,383 - INFO - Epoch 5 completed in 18.538027 seconds
2025-10-21 22:57:33,384 - INFO - torch.cuda.max_memory_reserved() : 1.845703125
2025-10-21 22:57:51,928 - INFO - Epoch 6 completed in 18.542533 seconds
2025-10-21 22:57:51,928 - INFO - torch.cuda.max_memory_reserved() : 1.845703125
2025-10-21 22:58:09,861 - INFO - Epoch 7 completed in 17.932940 seconds
2025-10-21 22:58:09,862 - INFO - torch.cuda.max_memory_reserved() : 1.845703125
2025-10-21 22:58:28,425 - INFO - Epoch 8 completed in 18.562680 seconds
2025-10-21 22:58:28,426 - INFO - torch.cuda.max_memory_reserved() : 1.845703125
2025-10-21 22:58:46,664 - INFO - Epoch 9 completed in 18.237784 seconds
2025-10-21 22:58:46,665 - INFO - torch.cuda.max_memory_reserved() : 1.845703125
2025-10-21 22:59:05,889 - INFO - Epoch 10 completed in 19.224139 seconds
2025-10-21 23:02:31,628 - INFO - torch.cuda.max_memory_reserved() : 1.845703125
2025-10-21 23:02:31,629 - INFO - !!!采用策略后的几个epoch 平均时间:18.410432875156403
2025-10-21 23:02:31,629 - INFO - 



